ilp_joint_2/output/breathing_ilp.lp
Maximize
  0.0223234678061854 Z_79_1_0 + 0.4013568264376439 Z_79_1_1
   + 6.1793710649327149e-04 Z_79_1_2 + 0.00170236018227195 Z_79_1_3
   + 0.00108930779906546 Z_26_1_0 + 0.00691518181223355 Z_26_1_1
   + 0.4570736936345793 Z_26_1_2 + 0.00183341648172131 Z_26_1_3
   + 5.8762048100857722e-04 Z_98_1_0 + 0.00698267025554006 Z_98_1_1
   + 0.4363414644992447 Z_98_1_2 + 0.00155074172345597 Z_98_1_3
   + 0.0270495249018715 Z_96_1_0 + 0.4034245731669471 Z_96_1_1
   + 0.00421488212306997 Z_96_1_2 + 0.0174844838360715 Z_96_1_3 + [
   6.05611e-05 Z_26_1_0 * Z_98_1_0 + 6.05611e-05 Z_26_1_1 * Z_98_1_1
   + 6.05611e-05 Z_26_1_2 * Z_98_1_2 + 6.05611e-05 Z_26_1_3 * Z_98_1_3
   ] / 2 
Subject To
 constraint1_791: Z_79_1_0 + Z_79_1_1 + Z_79_1_2 + Z_79_1_3 <= 1
 constraint1_261: Z_26_1_0 + Z_26_1_1 + Z_26_1_2 + Z_26_1_3 <= 1
 constraint1_981: Z_98_1_0 + Z_98_1_1 + Z_98_1_2 + Z_98_1_3 <= 1
 constraint1_961: Z_96_1_0 + Z_96_1_1 + Z_96_1_2 + Z_96_1_3 <= 1
 constraint2_790: Z_79_1_0 <= 1
 constraint2_791: Z_79_1_1 <= 1
 constraint2_792: Z_79_1_2 <= 1
 constraint2_793: Z_79_1_3 <= 1
 constraint2_260: Z_26_1_0 <= 1
 constraint2_261: Z_26_1_1 <= 1
 constraint2_262: Z_26_1_2 <= 1
 constraint2_263: Z_26_1_3 <= 1
 constraint2_980: Z_98_1_0 <= 1
 constraint2_981: Z_98_1_1 <= 1
 constraint2_982: Z_98_1_2 <= 1
 constraint2_983: Z_98_1_3 <= 1
 constraint2_960: Z_96_1_0 <= 1
 constraint2_961: Z_96_1_1 <= 1
 constraint2_962: Z_96_1_2 <= 1
 constraint2_963: Z_96_1_3 <= 1
Bounds
Binaries
 Z_79_1_0 Z_79_1_1 Z_79_1_2 Z_79_1_3 Z_26_1_0 Z_26_1_1 Z_26_1_2 Z_26_1_3
 Z_98_1_0 Z_98_1_1 Z_98_1_2 Z_98_1_3 Z_96_1_0 Z_96_1_1 Z_96_1_2 Z_96_1_3
End
