ilp_joint_2/output/breathing_ilp.mps
NAME breathing_srl_ilp
* Max problem is converted into Min one
ROWS
 N  OBJ
 L  constraint1_791
 L  constraint1_261
 L  constraint1_981
 L  constraint1_961
 L  constraint2_790
 L  constraint2_791
 L  constraint2_792
 L  constraint2_793
 L  constraint2_260
 L  constraint2_261
 L  constraint2_262
 L  constraint2_263
 L  constraint2_980
 L  constraint2_981
 L  constraint2_982
 L  constraint2_983
 L  constraint2_960
 L  constraint2_961
 L  constraint2_962
 L  constraint2_963
COLUMNS
    MARKER    'MARKER'                 'INTORG'
    Z_79_1_0  OBJ       -2.2323467806185437e-02
    Z_79_1_0  constraint1_791  1
    Z_79_1_0  constraint2_790  1
    Z_79_1_1  OBJ       -4.0135682643764392e-01
    Z_79_1_1  constraint1_791  1
    Z_79_1_1  constraint2_791  1
    Z_79_1_2  OBJ       -6.1793710649327149e-04
    Z_79_1_2  constraint1_791  1
    Z_79_1_2  constraint2_792  1
    Z_79_1_3  OBJ       -1.7023601822719542e-03
    Z_79_1_3  constraint1_791  1
    Z_79_1_3  constraint2_793  1
    Z_26_1_0  OBJ       -1.0893077990654643e-03
    Z_26_1_0  constraint1_261  1
    Z_26_1_0  constraint2_260  1
    Z_26_1_1  OBJ       -6.9151818122335507e-03
    Z_26_1_1  constraint1_261  1
    Z_26_1_1  constraint2_261  1
    Z_26_1_2  OBJ       -4.5707369363457928e-01
    Z_26_1_2  constraint1_261  1
    Z_26_1_2  constraint2_262  1
    Z_26_1_3  OBJ       -1.8334164817213102e-03
    Z_26_1_3  constraint1_261  1
    Z_26_1_3  constraint2_263  1
    Z_98_1_0  OBJ       -5.8762048100857722e-04
    Z_98_1_0  constraint1_981  1
    Z_98_1_0  constraint2_980  1
    Z_98_1_1  OBJ       -6.9826702555400577e-03
    Z_98_1_1  constraint1_981  1
    Z_98_1_1  constraint2_981  1
    Z_98_1_2  OBJ       -4.3634146449924471e-01
    Z_98_1_2  constraint1_981  1
    Z_98_1_2  constraint2_982  1
    Z_98_1_3  OBJ       -1.5507417234559720e-03
    Z_98_1_3  constraint1_981  1
    Z_98_1_3  constraint2_983  1
    Z_96_1_0  OBJ       -2.7049524901871513e-02
    Z_96_1_0  constraint1_961  1
    Z_96_1_0  constraint2_960  1
    Z_96_1_1  OBJ       -4.0342457316694708e-01
    Z_96_1_1  constraint1_961  1
    Z_96_1_1  constraint2_961  1
    Z_96_1_2  OBJ       -4.2148821230699740e-03
    Z_96_1_2  constraint1_961  1
    Z_96_1_2  constraint2_962  1
    Z_96_1_3  OBJ       -1.7484483836071464e-02
    Z_96_1_3  constraint1_961  1
    Z_96_1_3  constraint2_963  1
    MARKER    'MARKER'                 'INTEND'
RHS
    RHS1      constraint1_791  1
    RHS1      constraint1_261  1
    RHS1      constraint1_981  1
    RHS1      constraint1_961  1
    RHS1      constraint2_790  1
    RHS1      constraint2_791  1
    RHS1      constraint2_792  1
    RHS1      constraint2_793  1
    RHS1      constraint2_260  1
    RHS1      constraint2_261  1
    RHS1      constraint2_262  1
    RHS1      constraint2_263  1
    RHS1      constraint2_980  1
    RHS1      constraint2_981  1
    RHS1      constraint2_982  1
    RHS1      constraint2_983  1
    RHS1      constraint2_960  1
    RHS1      constraint2_961  1
    RHS1      constraint2_962  1
    RHS1      constraint2_963  1
BOUNDS
 UP BND1      Z_79_1_0  1
 UP BND1      Z_79_1_1  1
 UP BND1      Z_79_1_2  1
 UP BND1      Z_79_1_3  1
 UP BND1      Z_26_1_0  1
 UP BND1      Z_26_1_1  1
 UP BND1      Z_26_1_2  1
 UP BND1      Z_26_1_3  1
 UP BND1      Z_98_1_0  1
 UP BND1      Z_98_1_1  1
 UP BND1      Z_98_1_2  1
 UP BND1      Z_98_1_3  1
 UP BND1      Z_96_1_0  1
 UP BND1      Z_96_1_1  1
 UP BND1      Z_96_1_2  1
 UP BND1      Z_96_1_3  1
QUADOBJ
    Z_26_1_0  Z_98_1_0  -3.0280549289164102e-05
    Z_26_1_1  Z_98_1_1  -3.0280549289164102e-05
    Z_26_1_2  Z_98_1_2  -3.0280549289164102e-05
    Z_26_1_3  Z_98_1_3  -3.0280549289164102e-05
ENDATA
