ilp_joint_2/output/breathing_ilp.sol
# Solution for model breathing_srl_ilp
# Objective value = 1.6982268382877039e+00
Z_79_1_0 0
Z_79_1_1 1
Z_79_1_2 0
Z_79_1_3 0
Z_26_1_0 0
Z_26_1_1 0
Z_26_1_2 1
Z_26_1_3 0
Z_98_1_0 0
Z_98_1_1 0
Z_98_1_2 1
Z_98_1_3 0
Z_96_1_0 0
Z_96_1_1 1
Z_96_1_2 0
Z_96_1_3 0
